c Output_time 26.03.2020 18:08:26_+0100 1585242506727549415
c ** Program information **
c program_name                          "QBRG_debug"
c version                               "0.3.20"
c date                                  "25.3.2020"
c gid_id                                "673970833836058123f633335630c185360d632e"
c author                                "Oliver Kullmann"
c url                                   "https://github.com/OKullmann/oklibrary/blob/master/Satisfiability/Transformers/Generators/Random/QBRG.cpp"
c ** Machine information **
c machine_name                          "chyna-Lenovo-G50-70"
c bogomips                              3791.08
c ** Compilation information **
c compiler_version                      "g++ 7.5.0"
c compilation_date                      "Mar_26_2020 11:16:30"
c compilation_options                   "--std=c++17 -pedantic -fmax-errors=5 -Wall -Wextra -g -D_GLIBCXX_DEBUG"
c NDEBUG                                0
c OPTIMIZE                              0
c ** Parameters **
c command-line                          "./QBRG_debug" "a40 40" "110*1,1|2-2,1" "" "1,t" ""
c output                                "QuBlRaGe_80_110_1585242506727419198.qdimacs"
c options                               "filtered,renamed"
c num_quantifier_blocks                 2
c  quantifier_blocks                    1:a1-40 2:e41-80
c num_clause-blocks                     1
c  clause-blocks                        110 * {1-40,1,1/2} | {41-80,1,1/2}
c num_e-seeds                           23+2=25
c  e-seeds                              1 0 1 0 3 80 2 40 0 40 1 110 2 1 1 1 1 2 2 2 1 1 2 1 1585242506727418903
p cnf 77 110
a 1 2 3 4 5 6 7 8 9 10 11 12 13 14 15 16 17 18 19 20 21 22 23 24 25 26 27 28 29 30 31 32 33 34 35 36 37 38 0
e 39 40 41 42 43 44 45 46 47 48 49 50 51 52 53 54 55 56 57 58 59 60 61 62 63 64 65 66 67 68 69 70 71 72 73 74 75 76 77 0
-32 -39 0
4 39 0
-21 39 0
-33 39 0
14 -40 0
-28 -40 0
-30 -40 0
-11 40 0
-17 41 0
27 41 0
34 41 0
10 -42 0
-4 42 0
-28 42 0
-7 -43 0
-20 -43 0
-20 -44 0
23 -44 0
31 -44 0
13 -45 0
-37 -45 0
-7 46 0
13 46 0
-7 -47 0
23 -47 0
-35 47 0
-7 48 0
-1 -49 0
11 -49 0
-13 -49 0
14 -49 0
16 -49 0
18 -49 0
19 -49 0
-20 -50 0
-29 -50 0
-17 50 0
-37 50 0
-14 -51 0
-24 -51 0
20 51 0
12 52 0
28 52 0
-31 52 0
-5 -53 0
-21 -53 0
28 -53 0
4 53 0
9 -54 0
17 -54 0
27 -54 0
22 54 0
32 54 0
5 -55 0
-8 -55 0
-17 -55 0
21 -55 0
-26 55 0
-25 -56 0
-19 -57 0
27 -57 0
-37 -57 0
30 58 0
38 58 0
-1 -59 0
-6 -60 0
-22 -60 0
28 60 0
2 61 0
-4 61 0
-18 61 0
-34 -62 0
22 62 0
38 63 0
22 -64 0
-29 -64 0
-32 -64 0
-38 -64 0
11 -65 0
-19 65 0
22 65 0
36 66 0
2 67 0
-17 67 0
7 -68 0
19 68 0
-24 68 0
2 -69 0
-11 -69 0
31 -69 0
30 -70 0
15 70 0
-2 -71 0
-8 -71 0
6 71 0
-16 71 0
-21 -72 0
36 72 0
-12 -73 0
3 73 0
9 73 0
11 -74 0
-13 74 0
-38 75 0
-36 -76 0
1 76 0
-4 76 0
31 76 0
-7 -77 0
-18 -77 0
